50

91 12 273
88 19 292
88 18 268
87 3 297
87 12 270
86 8 261
86 12 282
85 20 289
85 6 279
84 18 278
83 2 250
80 4 251
79 24 291
78 15 285
77 8 241
70 13 241
70 3 277
68 20 245
67 17 281
66 3 266
59 11 205
52 14 248
49 5 232
48 10 280
47 15 293
47 14 219
44 8 227
42 10 224
38 3 191
37 4 294
37 4 277
34 2 257
34 7 238
33 10 299
31 6 127
29 9 290
27 8 90
24 8 127
21 3 283
17 5 159
16 5 81
16 5 296
15 1 143
14 1 286
8 1 253
6 2 88
5 0 178
4 0 65
2 0 132
2 1 251
